6 1
7 1
8 1
9 0
10 2
5 14
6 13
7 14
8 12
9 10
10 14
5 21
6 24
7 20
8 21
9 23
10 21
5 33
6 30
7 34
8 33
9 33
10 33
5 44
6 43
7 44
8 44
9 43
10 43
5 51
6 53
7 52
8 53
9 51
10 54
5 64
6 63
7 64
8 64
9 64
10 62
5 71
6 70
7 71
8 72
